============================[ Problem Statistics ]=============================|                                                                             ||  Number of variables:          4242                                         ||  Number of clauses:           10450                                         ||  Parse time:                   0.83 s                                       ||                                                                             |============================[ Search Statistics ]==============================| Conflicts |          ORIGINAL         |          LEARNT          | Progress ||           |    Vars  Clauses Literals |    Limit  Clauses Lit/Cl |          |===============================================================================|       100 |    1591     6655  1335506 |     2440      100     53 | 62.501 % ||       250 |    1591     6655  1335506 |     2684      250     75 | 62.495 % |===============================================================================restarts              : 4conflicts             : 451            (359 /sec)decisions             : 812            (0.00 % random) (647 /sec)propagations          : 13749          (10955 /sec)conflict literals     : 38215          (94.46 % deleted)CPU time              : 1.255 sSATISFIABLE